SolomonM
62
49
51
45
60
58
45
33
43
40
43
37
43
44
32
51
44
44
40
37
72
37
66
44
50
47
48
65
61
79
81
129
233
215
297
313
317
376
367
353
356
356
334
314
270
290
214
209
218
204
193
155
163
145
149
132
152
137
143
117
150
118
148
154
127
117
136
170
185
194
139
178
153
144
168
171
163
162
133
172
128
144
118
121
132
140
116
113
125
141
142
177
144
157
172
173
193
222
216
240
214
201
295
221
264
244
221
227
255
265
217
261
256
292
302
323
361
415
431
520
515
558
526
496
528
535
560
614
689
597
562
607
633
700
826
